c Arquivo convertido de bcsstm20.mtx
p edge 485 485
e 1 1
e 2 2
e 3 3
e 4 4
e 5 5
e 6 6
e 7 7
e 8 8
e 9 9
e 10 10
e 11 11
e 12 12
e 13 13
e 14 14
e 15 15
e 16 16
e 17 17
e 18 18
e 19 19
e 20 20
e 21 21
e 22 22
e 23 23
e 24 24
e 25 25
e 26 26
e 27 27
e 28 28
e 29 29
e 30 30
e 31 31
e 32 32
e 33 33
e 34 34
e 35 35
e 36 36
e 37 37
e 38 38
e 39 39
e 40 40
e 41 41
e 42 42
e 43 43
e 44 44
e 45 45
e 46 46
e 47 47
e 48 48
e 49 49
e 50 50
e 51 51
e 52 52
e 53 53
e 54 54
e 55 55
e 56 56
e 57 57
e 58 58
e 59 59
e 60 60
e 61 61
e 62 62
e 63 63
e 64 64
e 65 65
e 66 66
e 67 67
e 68 68
e 69 69
e 70 70
e 71 71
e 72 72
e 73 73
e 74 74
e 75 75
e 76 76
e 77 77
e 78 78
e 79 79
e 80 80
e 81 81
e 82 82
e 83 83
e 84 84
e 85 85
e 86 86
e 87 87
e 88 88
e 89 89
e 90 90
e 91 91
e 92 92
e 93 93
e 94 94
e 95 95
e 96 96
e 97 97
e 98 98
e 99 99
e 100 100
e 101 101
e 102 102
e 103 103
e 104 104
e 105 105
e 106 106
e 107 107
e 108 108
e 109 109
e 110 110
e 111 111
e 112 112
e 113 113
e 114 114
e 115 115
e 116 116
e 117 117
e 118 118
e 119 119
e 120 120
e 121 121
e 122 122
e 123 123
e 124 124
e 125 125
e 126 126
e 127 127
e 128 128
e 129 129
e 130 130
e 131 131
e 132 132
e 133 133
e 134 134
e 135 135
e 136 136
e 137 137
e 138 138
e 139 139
e 140 140
e 141 141
e 142 142
e 143 143
e 144 144
e 145 145
e 146 146
e 147 147
e 148 148
e 149 149
e 150 150
e 151 151
e 152 152
e 153 153
e 154 154
e 155 155
e 156 156
e 157 157
e 158 158
e 159 159
e 160 160
e 161 161
e 162 162
e 163 163
e 164 164
e 165 165
e 166 166
e 167 167
e 168 168
e 169 169
e 170 170
e 171 171
e 172 172
e 173 173
e 174 174
e 175 175
e 176 176
e 177 177
e 178 178
e 179 179
e 180 180
e 181 181
e 182 182
e 183 183
e 184 184
e 185 185
e 186 186
e 187 187
e 188 188
e 189 189
e 190 190
e 191 191
e 192 192
e 193 193
e 194 194
e 195 195
e 196 196
e 197 197
e 198 198
e 199 199
e 200 200
e 201 201
e 202 202
e 203 203
e 204 204
e 205 205
e 206 206
e 207 207
e 208 208
e 209 209
e 210 210
e 211 211
e 212 212
e 213 213
e 214 214
e 215 215
e 216 216
e 217 217
e 218 218
e 219 219
e 220 220
e 221 221
e 222 222
e 223 223
e 224 224
e 225 225
e 226 226
e 227 227
e 228 228
e 229 229
e 230 230
e 231 231
e 232 232
e 233 233
e 234 234
e 235 235
e 236 236
e 237 237
e 238 238
e 239 239
e 240 240
e 241 241
e 242 242
e 243 243
e 244 244
e 245 245
e 246 246
e 247 247
e 248 248
e 249 249
e 250 250
e 251 251
e 252 252
e 253 253
e 254 254
e 255 255
e 256 256
e 257 257
e 258 258
e 259 259
e 260 260
e 261 261
e 262 262
e 263 263
e 264 264
e 265 265
e 266 266
e 267 267
e 268 268
e 269 269
e 270 270
e 271 271
e 272 272
e 273 273
e 274 274
e 275 275
e 276 276
e 277 277
e 278 278
e 279 279
e 280 280
e 281 281
e 282 282
e 283 283
e 284 284
e 285 285
e 286 286
e 287 287
e 288 288
e 289 289
e 290 290
e 291 291
e 292 292
e 293 293
e 294 294
e 295 295
e 296 296
e 297 297
e 298 298
e 299 299
e 300 300
e 301 301
e 302 302
e 303 303
e 304 304
e 305 305
e 306 306
e 307 307
e 308 308
e 309 309
e 310 310
e 311 311
e 312 312
e 313 313
e 314 314
e 315 315
e 316 316
e 317 317
e 318 318
e 319 319
e 320 320
e 321 321
e 322 322
e 323 323
e 324 324
e 325 325
e 326 326
e 327 327
e 328 328
e 329 329
e 330 330
e 331 331
e 332 332
e 333 333
e 334 334
e 335 335
e 336 336
e 337 337
e 338 338
e 339 339
e 340 340
e 341 341
e 342 342
e 343 343
e 344 344
e 345 345
e 346 346
e 347 347
e 348 348
e 349 349
e 350 350
e 351 351
e 352 352
e 353 353
e 354 354
e 355 355
e 356 356
e 357 357
e 358 358
e 359 359
e 360 360
e 361 361
e 362 362
e 363 363
e 364 364
e 365 365
e 366 366
e 367 367
e 368 368
e 369 369
e 370 370
e 371 371
e 372 372
e 373 373
e 374 374
e 375 375
e 376 376
e 377 377
e 378 378
e 379 379
e 380 380
e 381 381
e 382 382
e 383 383
e 384 384
e 385 385
e 386 386
e 387 387
e 388 388
e 389 389
e 390 390
e 391 391
e 392 392
e 393 393
e 394 394
e 395 395
e 396 396
e 397 397
e 398 398
e 399 399
e 400 400
e 401 401
e 402 402
e 403 403
e 404 404
e 405 405
e 406 406
e 407 407
e 408 408
e 409 409
e 410 410
e 411 411
e 412 412
e 413 413
e 414 414
e 415 415
e 416 416
e 417 417
e 418 418
e 419 419
e 420 420
e 421 421
e 422 422
e 423 423
e 424 424
e 425 425
e 426 426
e 427 427
e 428 428
e 429 429
e 430 430
e 431 431
e 432 432
e 433 433
e 434 434
e 435 435
e 436 436
e 437 437
e 438 438
e 439 439
e 440 440
e 441 441
e 442 442
e 443 443
e 444 444
e 445 445
e 446 446
e 447 447
e 448 448
e 449 449
e 450 450
e 451 451
e 452 452
e 453 453
e 454 454
e 455 455
e 456 456
e 457 457
e 458 458
e 459 459
e 460 460
e 461 461
e 462 462
e 463 463
e 464 464
e 465 465
e 466 466
e 467 467
e 468 468
e 469 469
e 470 470
e 471 471
e 472 472
e 473 473
e 474 474
e 475 475
e 476 476
e 477 477
e 478 478
e 479 479
e 480 480
e 481 481
e 482 482
e 483 483
e 484 484
e 485 485
